CO_WSe_vac_CO_441   ! Comment line in POSCAR      
      1.0000000000000000
     13.1158447266000007      0.0000000000000000      0.0000000000000000
     -6.5579223633000003     11.3586547252999992      0.0000000000000000
      0.0000000000000000      0.0000000000000000     23.2921066283999991
C O W Se
           2           2          16          31
Selective dynamics
Cartesian
      4.7819145359502286        5.8306978108704772       10.0037810598229733  T  T  T
      1.6602927476579448        6.3326255005702556        3.0011141030913278  T  T  T
      4.4500764244304944        5.0458657235348348       10.7660107660898348  T  T  T
      1.5690060093062439        6.3348178345187849        4.2163413344521610  T  T  T
     -0.0080486955066147        1.8599731232481342        1.6729314978386829  T  T  T
     -1.6255246893595061        4.5991478084973298        1.6684074020919288  T  T  T
     -3.2939063457039977        7.5505723605013317        1.6782994200243706  T  T  T
     -4.9666646807386883       10.3681261932304416        1.7431765317718104  T  T  T
      3.2612814820131084        1.8198924062517046        1.7472645526982675  T  T  T
      1.6733428820024654        4.6977654662071409        1.6896108356426403  T  T  T
      0.0724836666139763        7.5377913750313308        1.6858006895482602  T  T  T
     -1.5941461981612961       10.3216397629016789        1.7044855941934558  T  T  T
      6.5627623723210107        1.8006609543497516        1.7123163771498173  T  T  T
      4.9027754205828655        4.6473202039469692        1.6967115508088411  T  T  T
      3.1873303491118965        7.5597515165579425        1.6970000701336472  T  T  T
      1.5987363503402641       10.3047158217071697        1.7038879653215844  T  T  T
      9.8010888307897410        1.8366342682109658        1.6408849830576788  T  T  T
      8.1658634790486158        4.6896517519637646        1.6975973263318127  T  T  T
      6.5913282230809784        7.5536295424206470        1.6996162162580424  T  T  T
      4.8725821558092193       10.3590536949417036        1.6787205180201052  T  T  T
      1.6341073964841641        0.9099134788415886        3.3946605646586359  T  T  T
      0.0482708991395421        3.7697528116012360        3.3935660685681674  T  T  T
     -1.5587216131392223        6.4668776434708244        3.3550576945215664  T  T  T
     -3.2270201412598372        9.3523358994652703        3.3757108054689682  T  T  T
      4.8951490815081371        0.8197627441024922        3.4720311198515232  T  T  T
      3.2939813158724558        3.7463519383092678        3.4116882592093276  T  T  T
     -0.0938582964480226        9.3754772274967646        3.4026402074684596  T  T  T
      8.2084239885952464        0.8581260552217661        3.3548026459539853  T  T  T
      6.5388618931095159        3.7031972285845298        3.3769567002525220  T  T  T
      4.8478808886979436        6.5584665656366194        3.3556602613200432  T  T  T
      3.2442879377930889        9.4149752455057865        3.4195374662220321  T  T  T
     11.4079585394143308        0.9095534322041060        3.3282561661874652  T  T  T
      9.7554160493320907        3.6878855348417310        3.3696380874288119  T  T  T
      8.2233999355368166        6.6074036257223661        3.3801996602583939  T  T  T
      6.4635206774049552        9.3648121322289910        3.4281583407273355  T  T  T
      1.6394803809714844        0.9465545452967936        0.0000000000000000  F  F  F
     -0.0000000655792236        3.7862182039044838        0.0000000000000000  F  F  F
     -1.6394805252457765        6.6258816580563895        0.0000000000000000  F  F  F
     -3.2789614439668950        9.4655456801410320        0.0000000000000000  F  F  F
      4.9184418249383794        0.9465545452967936        0.0000000000000000  F  F  F
      3.2789619030214596        3.7862182039044838        0.0000000000000000  F  F  F
      1.6394813121964602        6.6258816580563895        0.0000000000000000  F  F  F
      0.0000000000000001        9.4655456801410320        0.0000000000000000  F  F  F
      8.1974019573208015        0.9465545452967936        0.0000000000000000  F  F  F
      6.5579213796116456        3.7862182039044838        0.0000000000000000  F  F  F
      4.9184407887866461        6.6258816580563895        0.0000000000000000  F  F  F
      3.2789602635408688        9.4655456801410320        0.0000000000000000  F  F  F
     11.4763631389708021        0.9465545452967936        0.0000000000000000  F  F  F
      9.8368825612616462        3.7862182039044838        0.0000000000000000  F  F  F
      8.1974019704366459        6.6258816580563895        0.0000000000000000  F  F  F
      6.5579214451908694        9.4655456801410320        0.0000000000000000  F  F  F
 Cartesian
   -0.0132587068610455    0.0125087625933954   -0.0634269666883406
    0.0001028209000000    0.0052578777000000   -0.0002471938000000
   -0.0188275706946707   -0.0006621869597337   -0.0506353273413579
    0.0000122230000000    0.0033281690000000   -0.0020284407000000
    0.0008100755000000   -0.0008911943000000   -0.0007313752000000
   -0.0018059563000000   -0.0015300511000000    0.0004618159000000
   -0.0005878751000000    0.0035483915000000   -0.0004305077000000
    0.0003739395000000   -0.0020423472000000    0.0009199054000000
   -0.0034873383000000   -0.0006987345000000    0.0011677170000000
    0.0007962616000000    0.0000620293000000    0.0011058534000000
   -0.0018313905000000   -0.0031254151000000    0.0002303761000000
    0.0004022776000000   -0.0013565845000000    0.0022522388000000
    0.0009609129000000   -0.0003699690000000    0.0005213988000000
   -0.0003790582000000    0.0005475663000000    0.0013157974000000
    0.0002403295000000   -0.0008291738000000    0.0007679562000000
    0.0000743624000000   -0.0015949428000000    0.0005023649000000
   -0.0004904865000000   -0.0003455436000000    0.0007683359000000
    0.0026167494000000    0.0008067094000000    0.0004798327000000
    0.0008619516000000   -0.0001578756000000   -0.0023626761000000
    0.0007610228000000    0.0009733063000000   -0.0018700476000000
   -0.0010822541000000   -0.0010850113000000    0.0007659334000000
   -0.0013725409000000    0.0027515381000000    0.0008700707000000
   -0.0008725623000000   -0.0007057930000000   -0.0012415578000000
   -0.0004857072000000    0.0005296968000000    0.0054104021000000
   -0.0007674631000000    0.0013470756000000    0.0006318599000000
   -0.0004321093000000   -0.0012596625000000    0.0016375575000000
   -0.0013562639000000    0.0005607350000000   -0.0013805939000000
    0.0015066530000000   -0.0007318579000000   -0.0005933589000000
   -0.0008184314000000    0.0002371700000000    0.0017798088000000
    0.0020973979000000   -0.0000790926000000   -0.0002025523000000
    0.0007743367000000   -0.0019981303000000    0.0011406294000000
    0.0010941909000000   -0.0005305546000000   -0.0003509844000000
    0.0000495788000000   -0.0021319730000000    0.0020699014000000
    0.0010588834000000   -0.0015458883000000    0.0002707008000000
   -0.0010526237000000   -0.0018169689000000   -0.0001855261000000
    0.0000000000000000    0.0000000000000000    0.0000000000000000
    0.0000000000000000    0.0000000000000000    0.0000000000000000
    0.0000000000000000    0.0000000000000000    0.0000000000000000
    0.0000000000000000    0.0000000000000000    0.0000000000000000
    0.0000000000000000    0.0000000000000000    0.0000000000000000
    0.0000000000000000    0.0000000000000000    0.0000000000000000
    0.0000000000000000    0.0000000000000000    0.0000000000000000
    0.0000000000000000    0.0000000000000000    0.0000000000000000
    0.0000000000000000    0.0000000000000000    0.0000000000000000
    0.0000000000000000    0.0000000000000000    0.0000000000000000
    0.0000000000000000    0.0000000000000000    0.0000000000000000
    0.0000000000000000    0.0000000000000000    0.0000000000000000
    0.0000000000000000    0.0000000000000000    0.0000000000000000
    0.0000000000000000    0.0000000000000000    0.0000000000000000
    0.0000000000000000    0.0000000000000000    0.0000000000000000
    0.0000000000000000    0.0000000000000000    0.0000000000000000
